InboundTrucks  = 120;
OutboundTrucks = 60;
InboundDoors   = 10;
OutboundDoors  = 10;
ReleaseTime    = [74,108,24,116,69,118,45,59,6,84,64,27,77,28,117,36,62,88,100,27,42,56,9,32,24,20,11,56,98,68,46,24,60,100,41,30,81,101,51,54,26,8,55,59,38,27,14,83,105,79,87,42,85,109,112,34,50,100,48,29,54,9,51,95,85,53,0,111,59,27,68,12,44,101,2,47,90,46,1,33,72,104,19,4,55,23,35,8,97,19,51,87,93,105,46,114,83,72,60,21,63,108,112,65,39,111,111,23,88,67,87,111,0,10,8,4,73,44,68,89];
UnloadTime     = [38,17,39,18,21,22,45,38,18,15,19,29,31,34,14,13,45,45,32,39,13,22,27,30,15,27,19,26,39,23,37,17,43,30,25,16,27,21,10,10,35,39,12,31,25,27,40,22,45,44,30,31,11,18,28,32,33,35,35,13,24,43,14,23,19,17,19,31,17,33,11,38,22,33,42,45,23,18,39,44,45,30,29,29,26,25,37,23,39,29,12,25,13,31,38,38,13,27,45,23,12,39,13,10,36,38,27,19,41,13,12,27,17,15,38,31,43,14,19,40];
LoadTime       = [27,18,8,13,5,12,16,11,25,30,22,8,12,28,11,25,10,10,28,23,30,26,28,11,19,9,6,11,21,27,30,26,21,12,8,23,21,5,15,21,9,23,26,20,9,8,8,6,19,24,23,27,24,24,7,13,17,29,9,27];
TransferTime   = [| 28,0,16,0,34,0,0,0,0,0,0,0,0,34,0,0,19,0,0,0,27,0,0,12,43,0,0,0,0,0,0,0,0,0,0,0,0,0,0,0,0,11,0,0,34,13,34,35,0,0,38,0,0,0,0,0,0,0,0,0 | 0,0,0,43,10,0,0,0,0,0,0,0,0,0,0,0,0,0,0,39,0,0,0,0,0,44,0,0,0,0,0,47,20,0,0,0,0,0,0,0,0,0,0,18,22,0,19,0,0,21,37,0,32,0,26,10,30,27,50,36 | 22,0,0,0,0,0,0,0,0,0,0,0,0,19,0,16,0,0,0,23,0,0,16,35,0,21,0,0,0,49,0,21,45,0,0,0,13,0,0,0,0,0,0,0,0,33,41,0,0,0,0,0,38,0,0,0,0,14,0,0 | 0,39,0,23,44,18,0,0,0,0,0,49,21,0,0,0,0,0,42,0,0,0,29,0,0,31,0,29,44,0,0,0,12,0,0,0,31,0,0,0,0,0,0,16,0,0,0,22,24,0,43,0,0,0,34,0,0,0,0,0 | 0,0,0,22,0,0,0,0,0,0,48,0,12,0,0,0,0,44,22,0,0,21,0,0,0,0,0,0,0,0,0,0,0,0,0,0,0,0,16,0,22,0,50,0,29,25,0,50,50,45,0,0,0,0,0,30,0,38,0,0 | 0,0,0,14,18,0,0,0,0,0,0,13,0,45,37,0,0,41,0,31,0,0,0,46,50,0,0,0,50,0,12,40,0,0,0,0,0,0,0,31,31,0,0,24,48,0,0,0,31,0,0,33,0,0,0,0,0,10,0,44 | 0,0,0,0,0,0,0,0,0,0,41,11,0,0,0,0,0,39,0,0,27,0,0,0,0,0,0,0,0,0,0,33,0,0,0,27,0,0,0,0,0,0,30,47,0,0,0,0,0,0,0,0,0,0,0,0,0,0,0,30 | 0,0,0,0,0,0,0,0,0,0,0,33,0,0,0,0,0,0,0,0,0,0,0,0,0,17,16,24,0,10,0,25,0,0,0,0,0,0,0,46,0,19,0,0,0,0,0,0,0,23,0,20,0,0,0,28,0,14,0,0 | 0,0,0,0,0,0,0,27,0,0,0,0,44,0,0,0,15,33,0,0,0,0,27,24,31,41,0,0,0,47,0,0,0,0,0,0,0,18,12,0,0,0,33,0,0,21,0,50,40,0,0,0,0,0,0,0,0,39,0,0 | 0,46,33,0,30,34,0,0,0,0,0,15,0,0,0,0,0,0,15,0,0,0,48,0,45,0,0,0,12,0,0,21,0,0,0,0,0,28,0,0,0,0,16,0,0,0,0,15,0,0,0,0,26,34,0,0,0,0,0,0 | 0,0,0,0,0,15,0,0,0,28,0,0,0,0,0,0,0,0,0,0,0,0,0,0,30,29,0,0,0,0,0,35,0,0,0,10,0,15,0,13,0,11,43,0,35,0,0,16,0,0,25,0,0,0,0,0,0,0,13,45 | 0,39,0,0,0,0,0,0,0,0,0,0,0,0,0,0,28,0,0,0,0,0,0,0,0,0,0,0,0,0,0,0,0,0,25,0,0,0,14,37,45,0,0,0,0,0,0,27,22,0,50,0,0,0,0,0,0,0,0,0 | 37,0,0,0,0,0,0,16,0,38,0,48,39,0,0,0,0,25,0,0,42,0,14,0,0,0,42,0,0,0,0,0,0,0,0,0,32,0,49,0,0,26,0,0,0,0,0,0,0,0,0,0,0,34,0,0,0,0,0,0 | 0,0,0,0,0,0,0,27,0,0,0,0,0,0,0,36,44,0,31,16,0,33,0,0,21,0,0,0,0,0,0,25,29,0,25,0,0,0,0,0,0,0,35,0,40,0,0,0,0,26,0,15,30,0,0,0,0,17,19,0 | 0,0,0,36,0,0,0,25,0,0,0,33,0,0,0,0,0,0,0,14,0,47,0,0,0,41,0,0,0,37,0,0,46,0,29,0,0,0,0,0,0,0,0,0,0,0,0,0,0,0,0,0,33,0,0,0,32,41,0,0 | 22,0,0,46,0,0,0,21,0,0,0,0,0,36,41,21,0,0,0,0,0,0,0,0,0,0,0,0,0,0,49,14,16,29,0,0,0,0,0,0,0,0,0,10,0,0,28,19,0,0,24,0,0,0,0,0,0,0,46,0 | 0,0,0,0,33,11,12,0,0,0,37,0,0,0,23,0,26,37,35,0,34,26,27,19,18,0,0,0,0,0,0,0,0,0,0,0,0,0,0,14,11,0,16,0,0,0,29,0,18,0,0,41,0,0,0,0,0,0,0,0 | 0,0,0,0,0,0,0,23,24,0,32,17,0,0,0,0,0,0,0,0,17,0,0,0,0,0,0,39,0,18,0,0,0,0,0,0,0,38,0,0,0,0,0,0,0,0,0,0,0,0,0,46,22,0,0,0,26,16,0,0 | 0,48,0,0,0,0,0,28,0,0,47,0,48,0,25,0,14,0,23,0,0,0,0,0,0,39,23,0,0,0,17,37,0,0,0,0,0,44,0,0,0,0,0,41,0,0,0,0,0,25,14,16,0,0,0,20,0,0,0,0 | 0,35,0,12,0,0,0,0,0,0,0,0,31,0,19,23,0,0,0,0,0,0,0,0,0,27,0,0,0,0,0,45,0,0,39,0,0,0,0,0,0,24,0,0,0,0,0,19,0,0,0,0,0,0,0,0,0,0,0,19 | 0,0,0,0,0,0,0,0,0,0,0,0,0,22,0,0,26,48,12,21,0,0,0,0,0,0,0,0,0,11,0,40,39,0,0,24,36,0,0,0,0,0,16,31,32,0,0,0,44,0,0,0,0,0,0,0,0,0,14,17 | 0,0,0,0,0,0,35,0,32,0,16,0,0,0,0,27,10,45,0,0,0,0,0,0,0,0,0,0,48,0,0,0,0,29,26,0,0,12,0,0,0,25,0,0,30,0,25,22,0,38,0,50,32,0,10,0,0,0,0,0 | 0,0,0,0,0,0,45,0,47,48,0,0,0,0,0,0,0,0,25,17,15,0,0,0,0,11,0,0,0,0,46,0,0,0,0,48,0,0,0,0,0,0,0,0,40,0,0,10,0,0,0,0,0,0,21,0,0,22,17,0 | 0,0,32,0,15,0,0,0,27,24,0,0,0,34,19,25,0,0,46,0,0,0,0,0,0,0,0,0,0,0,0,12,0,0,0,0,0,30,0,0,11,18,0,0,36,0,31,0,0,0,29,16,0,17,0,12,0,30,0,0 | 19,0,0,0,18,0,0,0,0,0,0,0,43,0,0,0,0,0,0,10,0,27,23,0,44,12,0,0,0,0,0,0,0,0,13,27,0,0,0,0,0,0,31,0,0,0,45,0,16,0,0,33,0,0,28,0,43,0,12,32 | 0,21,0,0,33,0,43,50,0,32,0,0,0,11,0,42,0,45,0,0,0,0,0,0,0,0,0,42,0,0,0,0,45,0,0,0,30,0,0,0,0,0,0,0,0,0,26,0,0,0,49,0,0,0,38,0,0,28,0,27 | 0,0,0,0,0,0,30,0,0,0,47,41,27,0,0,0,0,0,0,0,0,13,0,0,0,0,0,0,0,0,0,0,0,0,0,0,15,0,0,0,0,31,0,0,0,0,0,0,0,47,0,29,0,0,0,0,14,0,0,0 | 0,0,0,0,0,0,0,0,29,0,0,0,0,0,41,0,38,0,0,35,25,30,31,43,0,10,0,0,0,0,43,16,27,0,0,39,31,46,44,0,0,41,0,30,35,0,0,0,19,0,0,0,0,0,0,0,0,32,0,24 | 0,50,0,0,0,0,48,0,0,0,0,41,0,0,27,0,0,28,0,0,30,0,0,0,11,0,0,0,0,0,0,0,0,0,0,31,0,0,38,0,0,0,0,0,0,0,0,0,0,0,0,0,0,0,0,0,0,0,28,33 | 45,0,0,0,0,36,0,15,0,0,0,0,14,0,0,17,0,0,44,22,0,0,49,0,0,0,0,0,23,43,0,0,0,48,0,0,0,0,27,0,0,0,47,0,31,0,49,0,0,0,0,0,0,25,20,22,0,0,0,45 | 0,0,0,0,0,0,0,0,0,44,0,0,0,42,0,0,0,0,0,0,43,25,42,24,0,0,47,0,0,26,0,0,0,0,16,0,0,0,47,0,29,19,0,0,0,0,0,0,0,35,0,0,0,0,10,0,0,0,0,0 | 0,0,0,42,0,0,36,26,0,28,0,0,0,0,28,0,19,0,0,0,0,0,0,0,23,0,13,0,28,0,0,0,24,0,0,0,0,41,0,0,0,0,13,0,36,0,0,0,44,0,0,0,0,0,0,0,0,0,40,35 | 24,0,0,50,0,0,0,38,0,10,0,0,0,49,0,0,0,17,0,0,0,0,0,0,24,36,0,0,0,0,21,0,0,35,0,0,29,0,0,0,0,13,12,29,45,0,16,0,22,0,0,0,0,0,0,0,0,0,36,0 | 50,0,0,0,0,0,0,16,14,0,0,0,39,0,0,0,0,0,42,0,37,0,27,24,0,38,0,38,0,35,50,0,0,0,0,0,0,0,26,42,20,0,0,0,47,0,0,0,27,0,0,0,0,36,0,47,0,0,34,0 | 0,0,0,0,0,29,0,0,0,0,0,0,45,0,0,0,0,45,0,0,0,15,0,0,0,0,31,0,0,15,0,0,0,35,18,16,41,11,17,0,0,0,0,0,43,0,0,0,0,0,45,0,0,0,19,46,0,0,0,0 | 0,0,21,24,0,37,27,0,0,0,0,20,49,24,0,48,0,0,0,0,11,0,0,22,0,0,0,32,0,0,0,0,36,49,0,0,20,0,19,0,0,0,0,0,0,0,0,30,0,34,37,0,0,0,0,46,0,0,38,0 | 0,0,0,40,0,0,0,0,0,0,0,0,36,0,0,37,0,0,36,0,44,0,0,0,15,0,0,0,0,0,47,0,0,0,0,11,0,0,40,0,0,0,0,0,0,0,0,0,23,0,0,0,0,0,0,0,0,0,0,0 | 0,0,0,0,0,0,0,0,27,0,38,0,0,47,0,23,0,27,29,0,0,0,0,14,0,0,0,0,27,48,30,33,0,48,0,0,0,0,0,0,0,0,49,0,0,0,0,34,12,0,0,0,0,0,0,0,0,0,0,40 | 0,0,0,0,0,0,0,0,22,0,0,0,0,0,0,19,0,0,0,0,0,0,12,0,10,0,0,0,0,0,0,0,0,26,15,0,0,29,35,0,29,0,0,29,0,30,0,0,0,30,0,0,0,40,19,0,37,0,0,33 | 0,0,0,0,0,0,0,0,0,0,0,0,0,0,0,0,0,0,0,0,30,0,0,0,34,0,0,0,0,0,31,0,36,0,49,0,0,50,0,0,0,39,0,0,0,0,49,0,0,0,0,0,0,0,0,0,0,11,0,0 | 0,0,38,0,0,0,0,0,44,29,0,0,0,0,0,0,23,0,29,0,27,0,44,0,11,0,43,0,0,0,0,0,33,0,0,0,42,0,0,0,0,0,0,28,0,0,0,0,0,0,0,0,0,0,0,0,0,0,47,0 | 0,33,0,0,0,0,0,0,0,28,19,0,0,13,0,36,0,0,34,0,0,12,0,0,49,24,0,0,0,0,0,31,0,0,0,27,0,0,0,0,0,0,0,0,0,0,10,0,0,0,0,0,0,0,0,0,0,0,0,0 | 0,15,35,0,0,30,49,0,26,0,0,0,0,36,35,0,10,0,32,32,0,0,11,0,0,0,0,0,0,0,13,0,20,0,17,36,40,0,0,19,0,41,0,0,0,0,0,0,0,0,0,0,0,20,0,0,0,46,0,0 | 28,46,0,0,0,40,0,49,0,0,0,0,0,34,18,0,0,0,0,0,0,0,13,0,0,0,13,0,0,0,0,0,0,29,0,0,0,0,0,0,0,0,0,22,0,31,0,0,0,0,0,0,26,34,10,0,0,0,0,22 | 0,0,0,0,0,0,0,0,0,0,0,0,0,0,0,43,0,0,0,0,0,0,0,31,0,0,0,0,0,0,0,0,17,41,0,15,0,0,0,0,23,0,0,28,0,0,0,0,0,0,0,19,0,0,28,22,0,0,13,0 | 0,0,0,0,0,0,25,12,0,0,0,0,0,46,12,21,0,0,45,0,0,0,0,0,0,0,0,0,0,0,0,47,0,0,0,0,0,0,0,0,0,34,23,47,0,44,0,0,0,0,23,39,0,0,0,0,17,0,0,0 | 0,0,0,33,0,13,21,22,0,0,0,0,0,0,0,10,0,45,0,0,0,0,0,27,35,25,0,0,44,0,0,0,0,23,0,0,34,12,0,0,46,0,0,50,0,48,35,46,0,0,0,0,0,0,0,0,0,19,30,0 | 0,19,0,0,46,44,0,15,0,0,49,0,34,38,0,0,35,0,0,0,39,0,0,0,0,0,0,19,0,0,33,0,0,0,0,0,38,0,0,0,0,0,0,25,40,0,0,27,0,31,0,0,0,0,0,24,0,0,0,0 | 0,0,0,0,0,0,0,0,0,0,0,0,0,0,0,0,0,0,0,0,0,0,46,40,34,0,0,0,0,38,0,0,0,47,0,0,0,36,0,12,0,0,12,0,0,0,0,47,0,0,0,0,35,0,0,0,0,0,0,0 | 0,0,0,34,0,0,0,44,0,0,0,0,38,0,0,31,32,0,0,0,26,0,0,49,0,0,0,0,0,50,0,0,43,0,11,0,36,10,0,46,0,0,0,39,0,0,0,37,0,40,27,0,0,0,0,0,0,0,0,10 | 0,0,0,23,0,38,0,0,0,35,0,0,0,0,0,0,0,0,0,0,0,0,0,0,0,0,0,0,0,0,0,29,0,0,42,0,0,0,0,0,0,0,0,0,0,0,15,33,0,0,0,0,0,0,0,0,0,0,0,0 | 0,36,0,0,0,42,0,43,0,0,0,0,0,0,0,42,0,0,0,0,0,0,0,0,0,0,0,0,0,0,28,17,23,0,0,0,0,0,0,0,0,0,0,0,0,0,43,0,0,28,0,0,0,0,0,0,0,0,0,50 | 0,0,0,0,0,0,0,0,25,0,0,0,35,0,34,15,0,14,0,16,0,0,0,24,0,0,0,44,0,0,0,0,0,28,0,0,0,0,0,0,0,24,0,0,0,0,0,0,0,33,46,0,0,16,0,0,0,0,0,0 | 0,44,0,0,0,0,19,25,0,0,0,0,0,13,43,40,0,0,0,0,10,0,0,46,29,45,0,0,0,0,0,0,10,0,0,0,0,0,0,0,0,10,0,0,0,0,24,0,0,0,0,0,0,0,0,0,0,0,0,0 | 0,0,0,29,0,0,0,0,48,0,0,0,0,0,42,0,15,0,0,0,34,34,21,42,0,23,0,46,48,41,0,0,0,0,17,0,45,22,0,0,0,0,0,0,0,0,0,49,0,0,0,0,0,24,0,0,0,18,0,0 | 0,0,0,0,42,0,0,0,0,0,0,0,0,0,0,0,0,0,0,0,37,0,0,48,22,0,0,0,0,0,0,0,23,0,34,0,0,43,0,0,0,0,17,0,0,0,0,0,0,0,0,0,0,0,0,19,0,0,13,0 | 0,33,0,28,0,47,0,37,0,14,0,28,0,0,0,0,0,38,0,0,0,0,0,0,0,0,0,0,20,0,0,0,0,0,36,0,0,0,19,0,0,19,0,0,49,0,0,18,0,0,0,0,12,0,0,0,39,0,0,18 | 39,0,43,0,0,0,0,0,0,0,0,0,42,19,0,0,0,0,20,0,12,0,0,0,0,39,0,0,33,0,33,16,28,0,15,11,0,0,0,0,0,0,0,38,0,0,0,0,0,12,17,0,0,0,27,0,0,19,0,0 | 0,0,0,0,0,0,0,25,0,16,0,0,16,0,0,0,0,0,32,0,0,0,0,0,22,16,0,0,0,18,0,0,0,0,0,0,0,0,0,0,0,0,0,0,0,0,0,0,39,40,0,0,0,0,20,0,43,0,26,46 | 0,15,0,0,0,41,48,0,0,49,0,0,0,33,30,0,19,0,0,39,0,0,0,0,14,11,18,0,0,27,0,0,0,0,0,29,0,0,0,29,11,0,32,23,0,11,0,0,27,0,0,0,0,0,0,0,0,0,0,0 | 30,0,10,15,0,32,22,0,0,0,0,0,0,47,0,24,37,0,0,0,0,0,0,0,34,28,0,0,26,0,0,0,0,0,0,0,48,0,44,31,0,0,0,0,42,0,0,0,0,0,0,0,0,38,0,0,0,0,40,0 | 0,47,0,44,0,0,0,0,0,0,0,32,23,0,0,0,0,0,0,0,33,0,0,0,33,0,0,47,18,0,0,46,0,22,0,0,0,0,35,0,0,0,0,0,18,0,40,0,0,0,0,35,0,0,0,0,48,0,26,0 | 0,20,0,0,0,0,0,0,0,0,0,0,0,0,0,32,0,0,0,0,0,0,0,32,13,0,0,49,0,23,16,0,0,0,27,0,0,0,27,0,0,40,17,34,28,0,0,0,0,0,0,0,0,0,0,0,0,0,0,14 | 0,0,43,0,0,0,0,0,11,0,0,18,0,0,27,29,45,10,0,28,0,0,0,31,0,0,0,23,0,0,48,0,0,0,0,0,0,48,0,0,15,0,0,0,15,46,32,0,0,31,0,13,0,0,0,26,39,23,0,0 | 0,0,41,0,19,0,0,0,0,0,0,0,0,0,33,49,0,0,0,0,0,0,0,0,25,0,0,0,0,48,0,0,0,0,0,0,40,0,10,0,12,16,25,0,0,50,0,0,0,0,0,0,0,0,0,0,0,30,0,0 | 0,0,35,44,0,0,0,0,0,0,0,0,0,0,33,0,0,29,0,0,42,39,23,0,0,0,0,0,0,0,0,30,0,14,0,19,38,0,0,0,12,0,46,0,0,0,0,0,0,0,0,0,0,13,0,0,19,0,0,22 | 0,36,0,0,0,0,0,0,0,0,41,43,16,45,0,0,0,0,0,0,0,0,0,41,0,0,39,0,0,0,0,14,49,0,0,23,39,0,0,0,0,42,0,0,0,32,0,0,0,27,0,0,0,0,0,0,37,0,13,0 | 18,0,26,0,0,0,13,28,0,29,0,0,0,0,45,0,0,0,41,0,0,31,0,0,0,0,0,0,0,0,29,0,0,0,0,29,0,0,19,0,0,0,0,0,0,22,0,28,0,49,27,35,45,0,0,0,26,0,0,10 | 0,0,27,10,0,0,0,0,38,10,0,0,34,0,26,18,0,0,0,45,27,0,0,47,0,0,0,0,41,0,0,47,20,43,0,0,0,25,0,21,0,0,0,0,0,0,28,0,0,0,0,0,0,0,0,10,0,0,0,0 | 42,45,43,0,10,0,0,0,46,0,0,0,0,13,14,0,0,0,0,0,29,35,0,0,0,0,49,0,48,0,0,0,0,12,0,0,0,0,0,0,0,0,0,0,0,0,0,0,0,0,0,45,0,25,0,0,28,0,47,0 | 0,0,14,15,0,0,0,33,0,48,0,0,48,0,0,0,0,0,0,0,0,15,0,0,0,0,0,40,0,0,0,0,0,0,0,0,0,0,0,0,0,0,0,0,0,0,29,0,0,39,0,23,0,0,36,11,0,0,0,0 | 24,0,0,45,0,17,0,0,0,0,0,0,0,0,24,0,24,0,0,0,0,20,0,0,27,0,0,0,0,45,0,42,48,0,0,0,0,0,0,14,0,0,0,12,0,12,0,10,0,0,0,0,0,0,0,0,0,0,0,41 | 0,0,0,0,0,0,0,0,0,0,0,25,10,0,0,0,0,41,0,20,0,0,0,0,0,19,43,0,48,0,0,49,0,0,0,50,0,0,36,0,0,0,50,0,0,0,35,0,0,27,0,0,0,0,21,30,19,0,33,0 | 0,0,37,0,0,0,0,40,0,0,22,0,21,0,0,0,0,0,19,0,0,0,0,17,0,49,0,0,50,0,0,0,0,24,0,0,11,0,0,0,0,0,0,0,0,0,33,14,0,0,0,0,0,0,0,0,0,0,33,0 | 26,0,0,0,0,40,0,0,0,0,0,44,0,0,12,0,0,49,0,0,0,0,0,32,0,0,30,0,12,27,0,0,27,37,45,16,0,0,0,0,36,17,0,0,0,31,0,0,0,11,0,0,0,0,22,0,0,24,0,0 | 15,0,35,0,0,0,0,0,0,0,0,0,12,0,0,0,0,0,0,0,0,0,0,0,0,0,0,0,45,0,0,0,0,0,0,0,20,28,49,0,0,0,0,0,0,0,0,0,0,40,0,17,0,0,0,0,0,0,0,28 | 0,0,0,0,0,0,50,0,0,0,0,0,0,39,0,0,0,15,38,16,0,0,0,0,0,0,10,0,0,0,0,0,0,0,0,0,0,0,0,0,0,0,0,0,0,15,32,0,0,0,0,0,0,0,14,0,0,0,0,17 | 22,0,0,0,0,0,0,0,22,0,21,0,0,0,0,0,0,0,0,0,31,0,14,0,0,0,0,44,0,0,0,0,0,0,0,0,0,28,0,0,14,0,0,0,0,0,0,0,0,0,0,0,0,38,0,0,0,15,31,0 | 37,0,17,0,0,24,0,41,0,0,0,42,0,0,22,32,0,34,0,0,0,0,0,0,0,42,0,0,0,0,36,0,0,0,0,0,0,0,34,38,35,20,0,36,0,0,0,0,0,34,0,0,0,0,0,0,0,0,0,0 | 0,0,19,0,0,0,0,0,16,0,0,0,30,0,15,39,0,20,0,0,41,0,0,0,0,0,0,0,18,45,0,41,41,0,0,0,0,0,37,20,0,0,0,0,0,0,50,0,0,0,35,0,0,39,0,0,0,0,0,40 | 0,0,0,37,0,0,0,13,0,0,0,0,0,0,47,0,0,0,0,0,0,0,0,0,0,26,0,0,0,17,0,0,10,11,0,31,0,10,0,37,41,50,32,0,0,0,0,0,0,26,0,0,46,0,0,0,0,19,0,0 | 37,0,0,0,0,0,0,0,46,0,37,0,45,47,0,0,0,0,0,0,0,0,0,30,0,0,0,11,28,0,0,50,0,0,0,0,0,0,0,0,0,0,27,0,16,0,28,0,25,0,0,38,0,0,0,0,39,39,0,0 | 50,0,0,22,0,0,0,0,42,0,0,0,35,42,0,0,42,45,0,0,0,0,0,0,0,30,0,0,0,0,40,44,0,0,0,0,0,0,0,0,0,0,0,39,0,0,0,0,0,0,0,16,0,0,21,0,45,41,29,0 | 45,0,0,0,0,0,37,0,0,34,30,0,0,0,0,0,0,35,0,0,0,12,0,0,0,0,0,0,15,0,0,32,0,0,0,21,0,0,44,0,0,0,0,0,24,0,0,0,0,0,0,0,20,0,0,0,0,0,33,0 | 0,0,0,20,29,0,0,29,0,0,0,0,0,0,42,0,0,0,0,0,48,0,21,0,0,0,29,0,0,28,0,0,0,45,0,0,0,33,0,0,0,0,0,0,0,0,0,26,18,0,0,0,0,23,0,19,0,0,0,0 | 17,32,47,0,0,0,0,0,0,0,0,0,0,0,0,0,0,47,0,16,43,17,0,33,0,0,0,11,0,0,0,0,0,0,0,0,0,0,0,0,13,10,0,24,0,19,0,37,0,0,0,0,47,39,0,28,23,0,28,0 | 0,25,28,0,0,0,35,0,0,0,0,31,0,0,0,0,14,27,16,0,0,10,0,38,0,0,0,16,0,0,31,0,0,0,0,0,47,0,0,47,0,0,0,0,32,49,0,0,18,25,0,0,0,33,0,0,0,45,0,0 | 0,0,0,0,0,41,44,42,32,0,0,22,50,0,0,0,0,0,0,0,48,0,23,0,0,0,23,0,0,0,0,0,40,0,0,14,0,0,12,27,0,0,0,0,32,0,0,0,13,44,0,27,0,0,0,0,36,0,44,0 | 0,14,0,0,0,0,0,25,23,0,0,0,0,24,15,40,0,0,13,28,0,0,0,0,10,0,0,0,48,0,18,0,0,43,0,0,0,0,0,23,12,0,0,0,0,0,0,38,0,44,11,0,0,0,0,0,0,0,0,0 | 0,0,0,0,0,0,0,0,0,0,30,0,48,0,0,0,0,0,0,0,0,0,34,47,0,0,29,0,0,0,46,0,0,43,0,0,0,0,12,0,0,21,0,0,44,0,0,0,0,0,0,0,0,0,0,23,0,25,0,30 | 43,0,0,17,0,0,0,0,0,0,0,0,0,37,0,0,0,35,42,0,0,28,0,44,0,37,11,0,39,34,0,34,0,0,0,0,45,0,0,0,0,0,0,0,34,0,0,0,0,0,0,0,0,12,32,0,0,0,0,0 | 0,0,0,0,0,0,0,0,0,0,0,0,0,0,0,0,0,0,37,0,0,0,0,0,30,0,0,0,0,0,0,0,0,0,46,0,0,0,0,0,0,0,40,0,12,0,19,48,0,43,37,0,19,0,49,0,21,0,0,0 | 0,43,0,29,0,37,0,10,0,19,0,0,0,0,0,0,13,38,0,33,0,16,0,50,29,0,0,0,0,0,15,20,0,0,0,0,0,0,0,32,38,0,35,17,29,46,0,35,0,0,0,0,0,0,0,18,45,0,0,36 | 14,0,17,0,0,0,0,0,0,0,46,0,0,0,11,14,0,0,0,0,0,0,32,0,0,0,48,0,28,0,0,0,0,0,0,0,0,0,0,24,0,0,0,0,0,48,0,37,19,0,0,26,0,0,27,0,19,0,0,0 | 0,0,0,0,0,17,0,0,0,0,43,0,0,0,0,0,30,0,40,0,0,0,0,0,0,0,0,0,0,50,0,0,13,0,19,0,0,11,0,0,0,0,33,0,0,0,0,29,0,0,0,0,0,0,0,0,0,30,33,0 | 0,0,0,25,0,0,11,0,0,0,0,0,0,0,0,0,48,0,0,20,0,0,0,0,0,0,0,0,0,0,0,0,0,24,0,0,40,0,0,33,0,40,0,0,0,0,0,0,0,0,50,0,0,0,0,0,0,0,0,0 | 0,0,16,0,0,46,0,0,0,0,0,42,14,0,0,0,44,0,0,0,0,0,11,0,0,37,24,21,0,0,0,24,29,0,0,0,19,0,0,0,0,0,0,26,0,0,0,0,39,0,0,0,0,0,0,0,0,34,0,20 | 0,0,27,22,0,0,0,0,0,0,0,49,0,0,0,20,0,0,0,0,0,0,0,46,18,0,0,0,33,14,21,0,0,0,26,0,27,0,0,0,0,0,0,0,10,0,0,0,43,0,0,0,0,44,0,0,0,0,0,0 | 0,17,0,0,29,0,0,0,10,0,0,0,37,0,0,0,0,0,0,0,30,0,0,0,0,0,0,15,0,0,50,0,46,20,10,0,0,0,0,31,34,34,25,0,0,0,0,0,42,0,0,40,0,17,0,0,0,0,28,0 | 0,13,0,0,0,0,0,0,0,0,0,0,0,0,0,39,0,35,0,0,0,0,0,0,0,0,0,0,0,18,0,38,20,28,0,0,0,33,0,0,0,0,45,0,0,0,27,0,0,0,50,0,0,0,0,0,28,0,0,0 | 0,16,0,0,0,0,0,0,0,0,0,0,0,0,13,0,10,0,0,0,0,0,0,18,0,20,0,0,0,0,0,0,45,0,0,33,0,0,0,0,30,0,0,0,32,18,0,0,0,0,0,0,32,49,0,0,0,28,0,0 | 0,19,38,0,0,0,47,0,42,0,0,0,0,0,0,0,0,0,13,0,0,0,0,0,0,0,0,0,0,0,0,0,0,37,36,0,0,0,0,0,0,19,45,0,13,0,0,41,0,0,0,0,0,13,0,0,0,0,10,20 | 38,0,0,0,0,0,0,0,0,0,22,0,0,0,19,0,0,0,15,50,0,49,30,0,35,48,0,37,0,11,0,34,0,0,47,0,0,23,0,0,43,44,0,42,0,0,0,0,13,0,42,0,0,0,0,0,0,40,0,0 | 19,0,0,0,0,0,0,0,0,0,41,0,23,0,0,0,17,0,45,49,0,22,42,0,0,0,0,0,0,0,0,0,0,0,0,0,0,0,0,0,0,0,0,0,42,42,0,0,0,0,0,0,0,42,0,0,0,0,0,0 | 46,0,0,0,0,30,0,0,0,0,0,0,0,0,36,43,0,0,0,0,0,12,0,0,16,0,0,0,0,0,12,0,31,12,37,43,0,25,0,43,0,0,0,0,25,0,25,0,0,0,0,0,0,0,0,0,50,0,25,0 | 0,0,0,0,0,39,0,0,0,0,0,0,0,0,16,49,0,0,0,0,0,19,0,13,50,0,11,0,0,0,0,0,0,0,0,29,0,0,0,0,0,0,0,30,0,25,0,0,0,0,0,0,0,0,0,0,0,0,0,0 | 0,0,0,0,0,0,0,44,43,0,0,0,0,43,0,28,0,44,42,48,31,19,0,12,0,0,38,14,0,0,18,0,0,0,0,0,0,19,0,0,0,36,0,0,0,0,34,27,0,0,0,0,47,0,0,34,0,35,0,0 | 0,34,0,37,0,0,0,0,11,13,0,0,50,40,0,0,0,0,0,0,0,0,0,0,0,0,30,0,0,0,0,0,0,0,0,0,0,10,0,0,34,34,0,0,43,0,25,0,0,0,0,20,0,0,0,12,0,0,0,26 | 0,0,0,0,0,45,0,0,0,0,0,0,0,0,0,0,32,0,0,38,0,0,0,0,33,0,0,23,24,0,24,0,0,0,0,45,0,50,0,0,0,22,0,0,17,0,0,0,0,0,0,34,0,0,46,0,0,49,0,0 | 27,0,40,0,0,0,28,46,0,0,0,0,0,0,0,0,0,21,0,0,0,0,0,0,0,0,0,0,0,0,0,0,0,0,0,0,16,0,44,11,15,0,0,0,0,0,0,33,0,30,0,0,0,0,39,0,0,46,0,0 | 0,0,19,32,0,0,0,0,50,0,0,14,0,0,0,0,27,0,0,0,0,0,0,0,0,0,0,31,0,0,44,0,0,48,0,0,0,0,17,0,0,0,0,0,0,0,0,0,19,0,39,0,0,0,37,14,0,0,0,0 | 0,0,46,0,0,32,0,0,0,0,34,0,0,0,0,18,10,0,36,0,0,0,0,0,18,0,16,0,25,49,42,0,0,0,0,0,33,0,20,0,0,0,25,0,41,32,18,0,30,0,0,0,31,0,25,29,0,0,27,0 | 47,0,0,0,0,30,43,0,0,0,0,0,0,0,0,0,0,49,18,0,48,0,0,0,0,25,32,0,0,0,0,0,0,0,0,0,0,0,0,0,20,0,0,0,0,0,0,0,0,0,0,11,0,0,0,0,0,0,0,20 | 0,31,0,0,0,0,0,0,0,0,0,0,44,0,0,0,0,0,0,0,45,0,0,0,13,0,21,0,0,0,0,30,0,0,0,18,0,0,20,0,0,0,20,0,0,0,26,49,0,0,0,0,0,0,0,28,0,0,48,0 | 0,0,0,0,18,0,35,32,24,46,0,42,43,0,0,0,0,0,0,0,0,0,0,0,0,0,0,0,0,50,49,0,0,0,0,17,33,30,0,0,0,0,0,0,0,11,38,0,0,0,0,0,0,0,0,47,0,0,0,14 | 11,0,0,0,0,0,0,41,0,0,0,0,0,0,0,0,31,0,0,42,0,0,0,0,0,35,29,0,0,0,0,0,0,0,23,0,0,0,0,0,0,0,0,0,39,0,0,0,0,0,0,0,44,0,48,0,0,0,0,0 | 0,15,0,0,0,0,0,0,0,0,35,0,0,0,0,0,0,0,47,0,0,35,10,0,0,26,0,0,0,0,0,0,34,38,0,0,0,29,0,0,0,0,0,35,0,0,0,0,0,0,0,0,0,0,17,0,0,32,0,31 | 0,0,0,0,0,0,0,0,24,0,23,0,30,0,0,0,0,17,0,0,0,0,0,0,0,0,32,0,0,0,14,0,0,0,0,0,0,45,0,24,0,0,0,0,0,0,0,0,0,0,24,0,0,0,48,0,21,0,0,0 | 0,0,0,0,0,0,27,0,0,0,0,0,0,30,0,0,0,0,0,0,46,0,0,0,0,0,44,14,0,0,0,0,0,0,0,0,45,33,0,0,0,0,0,0,0,0,0,22,0,0,0,0,0,0,0,0,0,10,0,29 | 30,0,0,0,35,0,0,0,0,0,37,0,0,47,0,0,0,0,12,15,0,21,0,46,0,0,0,0,17,0,41,19,19,0,17,45,48,0,0,30,0,0,0,0,0,0,0,0,43,28,0,0,0,27,0,25,0,0,40,0 |];
